NAME : 10_3_3_2_(27).dat
COMMENT : Henke, Speranza, Wäscher, 2015
TYPE : MCVRP
DIMENSION : 11
EDGE_WEIGHT_TYPE : DISTANCE_MATRIX
CAPACITY : 1000
VEHICLES : 2
PRODUCT TYPES : 3
COMPARTMENTS : 3
NODE_COORD_SECTION
1 50 50
2 89.55 97.96
3 80.57 91.3
4 77.82 58
5 68.37 55.05
6 38.47 20.54
7 20.78 26.47
8 23.02 13.35
9 8.29 33.33
10 3.37 63.56
11 18.62 2.87
DEMAND_SECTION
1 0 0 0
2 134 109 0
3 0 94 129
4 0 45 30
5 15 0 25
6 174 35 0
7 60 0 97
8 163 0 7
9 59 22 0
10 60 116 0
11 53 10 0
DEPOT_SECTION
1
EOF